16-WQUEENS-12-0 16 16 136 17
16 16 16 16 16 16 16 16 16 16 16 16 16 16 16 16 
2 0 1 0 46
0 0 17
0 1 17
1 0 17
1 1 17
1 2 17
2 1 17
2 2 17
2 3 17
3 2 17
3 3 17
3 4 17
4 3 17
4 4 17
4 5 17
5 4 17
5 5 17
5 6 17
6 5 17
6 6 17
6 7 17
7 6 17
7 7 17
7 8 17
8 7 17
8 8 17
8 9 17
9 8 17
9 9 17
9 10 17
10 9 17
10 10 17
10 11 17
11 10 17
11 11 17
11 12 17
12 11 17
12 12 17
12 13 17
13 12 17
13 13 17
13 14 17
14 13 17
14 14 17
14 15 17
15 14 17
15 15 17
2 0 2 0 44
0 0 17
0 2 17
1 1 17
1 3 17
2 0 17
2 2 17
2 4 17
3 1 17
3 3 17
3 5 17
4 2 17
4 4 17
4 6 17
5 3 17
5 5 17
5 7 17
6 4 17
6 6 17
6 8 17
7 5 17
7 7 17
7 9 17
8 6 17
8 8 17
8 10 17
9 7 17
9 9 17
9 11 17
10 8 17
10 10 17
10 12 17
11 9 17
11 11 17
11 13 17
12 10 17
12 12 17
12 14 17
13 11 17
13 13 17
13 15 17
14 12 17
14 14 17
15 13 17
15 15 17
2 0 3 0 42
0 0 17
0 3 17
1 1 17
1 4 17
2 2 17
2 5 17
3 0 17
3 3 17
3 6 17
4 1 17
4 4 17
4 7 17
5 2 17
5 5 17
5 8 17
6 3 17
6 6 17
6 9 17
7 4 17
7 7 17
7 10 17
8 5 17
8 8 17
8 11 17
9 6 17
9 9 17
9 12 17
10 7 17
10 10 17
10 13 17
11 8 17
11 11 17
11 14 17
12 9 17
12 12 17
12 15 17
13 10 17
13 13 17
14 11 17
14 14 17
15 12 17
15 15 17
2 0 4 0 40
0 0 17
0 4 17
1 1 17
1 5 17
2 2 17
2 6 17
3 3 17
3 7 17
4 0 17
4 4 17
4 8 17
5 1 17
5 5 17
5 9 17
6 2 17
6 6 17
6 10 17
7 3 17
7 7 17
7 11 17
8 4 17
8 8 17
8 12 17
9 5 17
9 9 17
9 13 17
10 6 17
10 10 17
10 14 17
11 7 17
11 11 17
11 15 17
12 8 17
12 12 17
13 9 17
13 13 17
14 10 17
14 14 17
15 11 17
15 15 17
2 0 5 0 38
0 0 17
0 5 17
1 1 17
1 6 17
2 2 17
2 7 17
3 3 17
3 8 17
4 4 17
4 9 17
5 0 17
5 5 17
5 10 17
6 1 17
6 6 17
6 11 17
7 2 17
7 7 17
7 12 17
8 3 17
8 8 17
8 13 17
9 4 17
9 9 17
9 14 17
10 5 17
10 10 17
10 15 17
11 6 17
11 11 17
12 7 17
12 12 17
13 8 17
13 13 17
14 9 17
14 14 17
15 10 17
15 15 17
2 0 6 0 36
0 0 17
0 6 17
1 1 17
1 7 17
2 2 17
2 8 17
3 3 17
3 9 17
4 4 17
4 10 17
5 5 17
5 11 17
6 0 17
6 6 17
6 12 17
7 1 17
7 7 17
7 13 17
8 2 17
8 8 17
8 14 17
9 3 17
9 9 17
9 15 17
10 4 17
10 10 17
11 5 17
11 11 17
12 6 17
12 12 17
13 7 17
13 13 17
14 8 17
14 14 17
15 9 17
15 15 17
2 0 7 0 34
0 0 17
0 7 17
1 1 17
1 8 17
2 2 17
2 9 17
3 3 17
3 10 17
4 4 17
4 11 17
5 5 17
5 12 17
6 6 17
6 13 17
7 0 17
7 7 17
7 14 17
8 1 17
8 8 17
8 15 17
9 2 17
9 9 17
10 3 17
10 10 17
11 4 17
11 11 17
12 5 17
12 12 17
13 6 17
13 13 17
14 7 17
14 14 17
15 8 17
15 15 17
2 0 8 0 32
0 0 17
0 8 17
1 1 17
1 9 17
2 2 17
2 10 17
3 3 17
3 11 17
4 4 17
4 12 17
5 5 17
5 13 17
6 6 17
6 14 17
7 7 17
7 15 17
8 0 17
8 8 17
9 1 17
9 9 17
10 2 17
10 10 17
11 3 17
11 11 17
12 4 17
12 12 17
13 5 17
13 13 17
14 6 17
14 14 17
15 7 17
15 15 17
2 0 9 0 30
0 0 17
0 9 17
1 1 17
1 10 17
2 2 17
2 11 17
3 3 17
3 12 17
4 4 17
4 13 17
5 5 17
5 14 17
6 6 17
6 15 17
7 7 17
8 8 17
9 0 17
9 9 17
10 1 17
10 10 17
11 2 17
11 11 17
12 3 17
12 12 17
13 4 17
13 13 17
14 5 17
14 14 17
15 6 17
15 15 17
2 0 10 0 28
0 0 17
0 10 17
1 1 17
1 11 17
2 2 17
2 12 17
3 3 17
3 13 17
4 4 17
4 14 17
5 5 17
5 15 17
6 6 17
7 7 17
8 8 17
9 9 17
10 0 17
10 10 17
11 1 17
11 11 17
12 2 17
12 12 17
13 3 17
13 13 17
14 4 17
14 14 17
15 5 17
15 15 17
2 0 11 0 26
0 0 17
0 11 17
1 1 17
1 12 17
2 2 17
2 13 17
3 3 17
3 14 17
4 4 17
4 15 17
5 5 17
6 6 17
7 7 17
8 8 17
9 9 17
10 10 17
11 0 17
11 11 17
12 1 17
12 12 17
13 2 17
13 13 17
14 3 17
14 14 17
15 4 17
15 15 17
2 0 12 0 24
0 0 17
0 12 17
1 1 17
1 13 17
2 2 17
2 14 17
3 3 17
3 15 17
4 4 17
5 5 17
6 6 17
7 7 17
8 8 17
9 9 17
10 10 17
11 11 17
12 0 17
12 12 17
13 1 17
13 13 17
14 2 17
14 14 17
15 3 17
15 15 17
2 0 13 0 22
0 0 17
0 13 17
1 1 17
1 14 17
2 2 17
2 15 17
3 3 17
4 4 17
5 5 17
6 6 17
7 7 17
8 8 17
9 9 17
10 10 17
11 11 17
12 12 17
13 0 17
13 13 17
14 1 17
14 14 17
15 2 17
15 15 17
2 0 14 0 20
0 0 17
0 14 17
1 1 17
1 15 17
2 2 17
3 3 17
4 4 17
5 5 17
6 6 17
7 7 17
8 8 17
9 9 17
10 10 17
11 11 17
12 12 17
13 13 17
14 0 17
14 14 17
15 1 17
15 15 17
2 0 15 0 18
0 0 17
0 15 17
1 1 17
2 2 17
3 3 17
4 4 17
5 5 17
6 6 17
7 7 17
8 8 17
9 9 17
10 10 17
11 11 17
12 12 17
13 13 17
14 14 17
15 0 17
15 15 17
2 1 2 0 46
0 0 17
0 1 17
1 0 17
1 1 17
1 2 17
2 1 17
2 2 17
2 3 17
3 2 17
3 3 17
3 4 17
4 3 17
4 4 17
4 5 17
5 4 17
5 5 17
5 6 17
6 5 17
6 6 17
6 7 17
7 6 17
7 7 17
7 8 17
8 7 17
8 8 17
8 9 17
9 8 17
9 9 17
9 10 17
10 9 17
10 10 17
10 11 17
11 10 17
11 11 17
11 12 17
12 11 17
12 12 17
12 13 17
13 12 17
13 13 17
13 14 17
14 13 17
14 14 17
14 15 17
15 14 17
15 15 17
2 1 3 0 44
0 0 17
0 2 17
1 1 17
1 3 17
2 0 17
2 2 17
2 4 17
3 1 17
3 3 17
3 5 17
4 2 17
4 4 17
4 6 17
5 3 17
5 5 17
5 7 17
6 4 17
6 6 17
6 8 17
7 5 17
7 7 17
7 9 17
8 6 17
8 8 17
8 10 17
9 7 17
9 9 17
9 11 17
10 8 17
10 10 17
10 12 17
11 9 17
11 11 17
11 13 17
12 10 17
12 12 17
12 14 17
13 11 17
13 13 17
13 15 17
14 12 17
14 14 17
15 13 17
15 15 17
2 1 4 0 42
0 0 17
0 3 17
1 1 17
1 4 17
2 2 17
2 5 17
3 0 17
3 3 17
3 6 17
4 1 17
4 4 17
4 7 17
5 2 17
5 5 17
5 8 17
6 3 17
6 6 17
6 9 17
7 4 17
7 7 17
7 10 17
8 5 17
8 8 17
8 11 17
9 6 17
9 9 17
9 12 17
10 7 17
10 10 17
10 13 17
11 8 17
11 11 17
11 14 17
12 9 17
12 12 17
12 15 17
13 10 17
13 13 17
14 11 17
14 14 17
15 12 17
15 15 17
2 1 5 0 40
0 0 17
0 4 17
1 1 17
1 5 17
2 2 17
2 6 17
3 3 17
3 7 17
4 0 17
4 4 17
4 8 17
5 1 17
5 5 17
5 9 17
6 2 17
6 6 17
6 10 17
7 3 17
7 7 17
7 11 17
8 4 17
8 8 17
8 12 17
9 5 17
9 9 17
9 13 17
10 6 17
10 10 17
10 14 17
11 7 17
11 11 17
11 15 17
12 8 17
12 12 17
13 9 17
13 13 17
14 10 17
14 14 17
15 11 17
15 15 17
2 1 6 0 38
0 0 17
0 5 17
1 1 17
1 6 17
2 2 17
2 7 17
3 3 17
3 8 17
4 4 17
4 9 17
5 0 17
5 5 17
5 10 17
6 1 17
6 6 17
6 11 17
7 2 17
7 7 17
7 12 17
8 3 17
8 8 17
8 13 17
9 4 17
9 9 17
9 14 17
10 5 17
10 10 17
10 15 17
11 6 17
11 11 17
12 7 17
12 12 17
13 8 17
13 13 17
14 9 17
14 14 17
15 10 17
15 15 17
2 1 7 0 36
0 0 17
0 6 17
1 1 17
1 7 17
2 2 17
2 8 17
3 3 17
3 9 17
4 4 17
4 10 17
5 5 17
5 11 17
6 0 17
6 6 17
6 12 17
7 1 17
7 7 17
7 13 17
8 2 17
8 8 17
8 14 17
9 3 17
9 9 17
9 15 17
10 4 17
10 10 17
11 5 17
11 11 17
12 6 17
12 12 17
13 7 17
13 13 17
14 8 17
14 14 17
15 9 17
15 15 17
2 1 8 0 34
0 0 17
0 7 17
1 1 17
1 8 17
2 2 17
2 9 17
3 3 17
3 10 17
4 4 17
4 11 17
5 5 17
5 12 17
6 6 17
6 13 17
7 0 17
7 7 17
7 14 17
8 1 17
8 8 17
8 15 17
9 2 17
9 9 17
10 3 17
10 10 17
11 4 17
11 11 17
12 5 17
12 12 17
13 6 17
13 13 17
14 7 17
14 14 17
15 8 17
15 15 17
2 1 9 0 32
0 0 17
0 8 17
1 1 17
1 9 17
2 2 17
2 10 17
3 3 17
3 11 17
4 4 17
4 12 17
5 5 17
5 13 17
6 6 17
6 14 17
7 7 17
7 15 17
8 0 17
8 8 17
9 1 17
9 9 17
10 2 17
10 10 17
11 3 17
11 11 17
12 4 17
12 12 17
13 5 17
13 13 17
14 6 17
14 14 17
15 7 17
15 15 17
2 1 10 0 30
0 0 17
0 9 17
1 1 17
1 10 17
2 2 17
2 11 17
3 3 17
3 12 17
4 4 17
4 13 17
5 5 17
5 14 17
6 6 17
6 15 17
7 7 17
8 8 17
9 0 17
9 9 17
10 1 17
10 10 17
11 2 17
11 11 17
12 3 17
12 12 17
13 4 17
13 13 17
14 5 17
14 14 17
15 6 17
15 15 17
2 1 11 0 28
0 0 17
0 10 17
1 1 17
1 11 17
2 2 17
2 12 17
3 3 17
3 13 17
4 4 17
4 14 17
5 5 17
5 15 17
6 6 17
7 7 17
8 8 17
9 9 17
10 0 17
10 10 17
11 1 17
11 11 17
12 2 17
12 12 17
13 3 17
13 13 17
14 4 17
14 14 17
15 5 17
15 15 17
2 1 12 0 26
0 0 17
0 11 17
1 1 17
1 12 17
2 2 17
2 13 17
3 3 17
3 14 17
4 4 17
4 15 17
5 5 17
6 6 17
7 7 17
8 8 17
9 9 17
10 10 17
11 0 17
11 11 17
12 1 17
12 12 17
13 2 17
13 13 17
14 3 17
14 14 17
15 4 17
15 15 17
2 1 13 0 24
0 0 17
0 12 17
1 1 17
1 13 17
2 2 17
2 14 17
3 3 17
3 15 17
4 4 17
5 5 17
6 6 17
7 7 17
8 8 17
9 9 17
10 10 17
11 11 17
12 0 17
12 12 17
13 1 17
13 13 17
14 2 17
14 14 17
15 3 17
15 15 17
2 1 14 0 22
0 0 17
0 13 17
1 1 17
1 14 17
2 2 17
2 15 17
3 3 17
4 4 17
5 5 17
6 6 17
7 7 17
8 8 17
9 9 17
10 10 17
11 11 17
12 12 17
13 0 17
13 13 17
14 1 17
14 14 17
15 2 17
15 15 17
2 1 15 0 20
0 0 17
0 14 17
1 1 17
1 15 17
2 2 17
3 3 17
4 4 17
5 5 17
6 6 17
7 7 17
8 8 17
9 9 17
10 10 17
11 11 17
12 12 17
13 13 17
14 0 17
14 14 17
15 1 17
15 15 17
2 2 3 0 46
0 0 17
0 1 17
1 0 17
1 1 17
1 2 17
2 1 17
2 2 17
2 3 17
3 2 17
3 3 17
3 4 17
4 3 17
4 4 17
4 5 17
5 4 17
5 5 17
5 6 17
6 5 17
6 6 17
6 7 17
7 6 17
7 7 17
7 8 17
8 7 17
8 8 17
8 9 17
9 8 17
9 9 17
9 10 17
10 9 17
10 10 17
10 11 17
11 10 17
11 11 17
11 12 17
12 11 17
12 12 17
12 13 17
13 12 17
13 13 17
13 14 17
14 13 17
14 14 17
14 15 17
15 14 17
15 15 17
2 2 4 0 44
0 0 17
0 2 17
1 1 17
1 3 17
2 0 17
2 2 17
2 4 17
3 1 17
3 3 17
3 5 17
4 2 17
4 4 17
4 6 17
5 3 17
5 5 17
5 7 17
6 4 17
6 6 17
6 8 17
7 5 17
7 7 17
7 9 17
8 6 17
8 8 17
8 10 17
9 7 17
9 9 17
9 11 17
10 8 17
10 10 17
10 12 17
11 9 17
11 11 17
11 13 17
12 10 17
12 12 17
12 14 17
13 11 17
13 13 17
13 15 17
14 12 17
14 14 17
15 13 17
15 15 17
2 2 5 0 42
0 0 17
0 3 17
1 1 17
1 4 17
2 2 17
2 5 17
3 0 17
3 3 17
3 6 17
4 1 17
4 4 17
4 7 17
5 2 17
5 5 17
5 8 17
6 3 17
6 6 17
6 9 17
7 4 17
7 7 17
7 10 17
8 5 17
8 8 17
8 11 17
9 6 17
9 9 17
9 12 17
10 7 17
10 10 17
10 13 17
11 8 17
11 11 17
11 14 17
12 9 17
12 12 17
12 15 17
13 10 17
13 13 17
14 11 17
14 14 17
15 12 17
15 15 17
2 2 6 0 40
0 0 17
0 4 17
1 1 17
1 5 17
2 2 17
2 6 17
3 3 17
3 7 17
4 0 17
4 4 17
4 8 17
5 1 17
5 5 17
5 9 17
6 2 17
6 6 17
6 10 17
7 3 17
7 7 17
7 11 17
8 4 17
8 8 17
8 12 17
9 5 17
9 9 17
9 13 17
10 6 17
10 10 17
10 14 17
11 7 17
11 11 17
11 15 17
12 8 17
12 12 17
13 9 17
13 13 17
14 10 17
14 14 17
15 11 17
15 15 17
2 2 7 0 38
0 0 17
0 5 17
1 1 17
1 6 17
2 2 17
2 7 17
3 3 17
3 8 17
4 4 17
4 9 17
5 0 17
5 5 17
5 10 17
6 1 17
6 6 17
6 11 17
7 2 17
7 7 17
7 12 17
8 3 17
8 8 17
8 13 17
9 4 17
9 9 17
9 14 17
10 5 17
10 10 17
10 15 17
11 6 17
11 11 17
12 7 17
12 12 17
13 8 17
13 13 17
14 9 17
14 14 17
15 10 17
15 15 17
2 2 8 0 36
0 0 17
0 6 17
1 1 17
1 7 17
2 2 17
2 8 17
3 3 17
3 9 17
4 4 17
4 10 17
5 5 17
5 11 17
6 0 17
6 6 17
6 12 17
7 1 17
7 7 17
7 13 17
8 2 17
8 8 17
8 14 17
9 3 17
9 9 17
9 15 17
10 4 17
10 10 17
11 5 17
11 11 17
12 6 17
12 12 17
13 7 17
13 13 17
14 8 17
14 14 17
15 9 17
15 15 17
2 2 9 0 34
0 0 17
0 7 17
1 1 17
1 8 17
2 2 17
2 9 17
3 3 17
3 10 17
4 4 17
4 11 17
5 5 17
5 12 17
6 6 17
6 13 17
7 0 17
7 7 17
7 14 17
8 1 17
8 8 17
8 15 17
9 2 17
9 9 17
10 3 17
10 10 17
11 4 17
11 11 17
12 5 17
12 12 17
13 6 17
13 13 17
14 7 17
14 14 17
15 8 17
15 15 17
2 2 10 0 32
0 0 17
0 8 17
1 1 17
1 9 17
2 2 17
2 10 17
3 3 17
3 11 17
4 4 17
4 12 17
5 5 17
5 13 17
6 6 17
6 14 17
7 7 17
7 15 17
8 0 17
8 8 17
9 1 17
9 9 17
10 2 17
10 10 17
11 3 17
11 11 17
12 4 17
12 12 17
13 5 17
13 13 17
14 6 17
14 14 17
15 7 17
15 15 17
2 2 11 0 30
0 0 17
0 9 17
1 1 17
1 10 17
2 2 17
2 11 17
3 3 17
3 12 17
4 4 17
4 13 17
5 5 17
5 14 17
6 6 17
6 15 17
7 7 17
8 8 17
9 0 17
9 9 17
10 1 17
10 10 17
11 2 17
11 11 17
12 3 17
12 12 17
13 4 17
13 13 17
14 5 17
14 14 17
15 6 17
15 15 17
2 2 12 0 28
0 0 17
0 10 17
1 1 17
1 11 17
2 2 17
2 12 17
3 3 17
3 13 17
4 4 17
4 14 17
5 5 17
5 15 17
6 6 17
7 7 17
8 8 17
9 9 17
10 0 17
10 10 17
11 1 17
11 11 17
12 2 17
12 12 17
13 3 17
13 13 17
14 4 17
14 14 17
15 5 17
15 15 17
2 2 13 0 26
0 0 17
0 11 17
1 1 17
1 12 17
2 2 17
2 13 17
3 3 17
3 14 17
4 4 17
4 15 17
5 5 17
6 6 17
7 7 17
8 8 17
9 9 17
10 10 17
11 0 17
11 11 17
12 1 17
12 12 17
13 2 17
13 13 17
14 3 17
14 14 17
15 4 17
15 15 17
2 2 14 0 24
0 0 17
0 12 17
1 1 17
1 13 17
2 2 17
2 14 17
3 3 17
3 15 17
4 4 17
5 5 17
6 6 17
7 7 17
8 8 17
9 9 17
10 10 17
11 11 17
12 0 17
12 12 17
13 1 17
13 13 17
14 2 17
14 14 17
15 3 17
15 15 17
2 2 15 0 22
0 0 17
0 13 17
1 1 17
1 14 17
2 2 17
2 15 17
3 3 17
4 4 17
5 5 17
6 6 17
7 7 17
8 8 17
9 9 17
10 10 17
11 11 17
12 12 17
13 0 17
13 13 17
14 1 17
14 14 17
15 2 17
15 15 17
2 3 4 0 46
0 0 17
0 1 17
1 0 17
1 1 17
1 2 17
2 1 17
2 2 17
2 3 17
3 2 17
3 3 17
3 4 17
4 3 17
4 4 17
4 5 17
5 4 17
5 5 17
5 6 17
6 5 17
6 6 17
6 7 17
7 6 17
7 7 17
7 8 17
8 7 17
8 8 17
8 9 17
9 8 17
9 9 17
9 10 17
10 9 17
10 10 17
10 11 17
11 10 17
11 11 17
11 12 17
12 11 17
12 12 17
12 13 17
13 12 17
13 13 17
13 14 17
14 13 17
14 14 17
14 15 17
15 14 17
15 15 17
2 3 5 0 44
0 0 17
0 2 17
1 1 17
1 3 17
2 0 17
2 2 17
2 4 17
3 1 17
3 3 17
3 5 17
4 2 17
4 4 17
4 6 17
5 3 17
5 5 17
5 7 17
6 4 17
6 6 17
6 8 17
7 5 17
7 7 17
7 9 17
8 6 17
8 8 17
8 10 17
9 7 17
9 9 17
9 11 17
10 8 17
10 10 17
10 12 17
11 9 17
11 11 17
11 13 17
12 10 17
12 12 17
12 14 17
13 11 17
13 13 17
13 15 17
14 12 17
14 14 17
15 13 17
15 15 17
2 3 6 0 42
0 0 17
0 3 17
1 1 17
1 4 17
2 2 17
2 5 17
3 0 17
3 3 17
3 6 17
4 1 17
4 4 17
4 7 17
5 2 17
5 5 17
5 8 17
6 3 17
6 6 17
6 9 17
7 4 17
7 7 17
7 10 17
8 5 17
8 8 17
8 11 17
9 6 17
9 9 17
9 12 17
10 7 17
10 10 17
10 13 17
11 8 17
11 11 17
11 14 17
12 9 17
12 12 17
12 15 17
13 10 17
13 13 17
14 11 17
14 14 17
15 12 17
15 15 17
2 3 7 0 40
0 0 17
0 4 17
1 1 17
1 5 17
2 2 17
2 6 17
3 3 17
3 7 17
4 0 17
4 4 17
4 8 17
5 1 17
5 5 17
5 9 17
6 2 17
6 6 17
6 10 17
7 3 17
7 7 17
7 11 17
8 4 17
8 8 17
8 12 17
9 5 17
9 9 17
9 13 17
10 6 17
10 10 17
10 14 17
11 7 17
11 11 17
11 15 17
12 8 17
12 12 17
13 9 17
13 13 17
14 10 17
14 14 17
15 11 17
15 15 17
2 3 8 0 38
0 0 17
0 5 17
1 1 17
1 6 17
2 2 17
2 7 17
3 3 17
3 8 17
4 4 17
4 9 17
5 0 17
5 5 17
5 10 17
6 1 17
6 6 17
6 11 17
7 2 17
7 7 17
7 12 17
8 3 17
8 8 17
8 13 17
9 4 17
9 9 17
9 14 17
10 5 17
10 10 17
10 15 17
11 6 17
11 11 17
12 7 17
12 12 17
13 8 17
13 13 17
14 9 17
14 14 17
15 10 17
15 15 17
2 3 9 0 36
0 0 17
0 6 17
1 1 17
1 7 17
2 2 17
2 8 17
3 3 17
3 9 17
4 4 17
4 10 17
5 5 17
5 11 17
6 0 17
6 6 17
6 12 17
7 1 17
7 7 17
7 13 17
8 2 17
8 8 17
8 14 17
9 3 17
9 9 17
9 15 17
10 4 17
10 10 17
11 5 17
11 11 17
12 6 17
12 12 17
13 7 17
13 13 17
14 8 17
14 14 17
15 9 17
15 15 17
2 3 10 0 34
0 0 17
0 7 17
1 1 17
1 8 17
2 2 17
2 9 17
3 3 17
3 10 17
4 4 17
4 11 17
5 5 17
5 12 17
6 6 17
6 13 17
7 0 17
7 7 17
7 14 17
8 1 17
8 8 17
8 15 17
9 2 17
9 9 17
10 3 17
10 10 17
11 4 17
11 11 17
12 5 17
12 12 17
13 6 17
13 13 17
14 7 17
14 14 17
15 8 17
15 15 17
2 3 11 0 32
0 0 17
0 8 17
1 1 17
1 9 17
2 2 17
2 10 17
3 3 17
3 11 17
4 4 17
4 12 17
5 5 17
5 13 17
6 6 17
6 14 17
7 7 17
7 15 17
8 0 17
8 8 17
9 1 17
9 9 17
10 2 17
10 10 17
11 3 17
11 11 17
12 4 17
12 12 17
13 5 17
13 13 17
14 6 17
14 14 17
15 7 17
15 15 17
2 3 12 0 30
0 0 17
0 9 17
1 1 17
1 10 17
2 2 17
2 11 17
3 3 17
3 12 17
4 4 17
4 13 17
5 5 17
5 14 17
6 6 17
6 15 17
7 7 17
8 8 17
9 0 17
9 9 17
10 1 17
10 10 17
11 2 17
11 11 17
12 3 17
12 12 17
13 4 17
13 13 17
14 5 17
14 14 17
15 6 17
15 15 17
2 3 13 0 28
0 0 17
0 10 17
1 1 17
1 11 17
2 2 17
2 12 17
3 3 17
3 13 17
4 4 17
4 14 17
5 5 17
5 15 17
6 6 17
7 7 17
8 8 17
9 9 17
10 0 17
10 10 17
11 1 17
11 11 17
12 2 17
12 12 17
13 3 17
13 13 17
14 4 17
14 14 17
15 5 17
15 15 17
2 3 14 0 26
0 0 17
0 11 17
1 1 17
1 12 17
2 2 17
2 13 17
3 3 17
3 14 17
4 4 17
4 15 17
5 5 17
6 6 17
7 7 17
8 8 17
9 9 17
10 10 17
11 0 17
11 11 17
12 1 17
12 12 17
13 2 17
13 13 17
14 3 17
14 14 17
15 4 17
15 15 17
2 3 15 0 24
0 0 17
0 12 17
1 1 17
1 13 17
2 2 17
2 14 17
3 3 17
3 15 17
4 4 17
5 5 17
6 6 17
7 7 17
8 8 17
9 9 17
10 10 17
11 11 17
12 0 17
12 12 17
13 1 17
13 13 17
14 2 17
14 14 17
15 3 17
15 15 17
2 4 5 0 46
0 0 17
0 1 17
1 0 17
1 1 17
1 2 17
2 1 17
2 2 17
2 3 17
3 2 17
3 3 17
3 4 17
4 3 17
4 4 17
4 5 17
5 4 17
5 5 17
5 6 17
6 5 17
6 6 17
6 7 17
7 6 17
7 7 17
7 8 17
8 7 17
8 8 17
8 9 17
9 8 17
9 9 17
9 10 17
10 9 17
10 10 17
10 11 17
11 10 17
11 11 17
11 12 17
12 11 17
12 12 17
12 13 17
13 12 17
13 13 17
13 14 17
14 13 17
14 14 17
14 15 17
15 14 17
15 15 17
2 4 6 0 44
0 0 17
0 2 17
1 1 17
1 3 17
2 0 17
2 2 17
2 4 17
3 1 17
3 3 17
3 5 17
4 2 17
4 4 17
4 6 17
5 3 17
5 5 17
5 7 17
6 4 17
6 6 17
6 8 17
7 5 17
7 7 17
7 9 17
8 6 17
8 8 17
8 10 17
9 7 17
9 9 17
9 11 17
10 8 17
10 10 17
10 12 17
11 9 17
11 11 17
11 13 17
12 10 17
12 12 17
12 14 17
13 11 17
13 13 17
13 15 17
14 12 17
14 14 17
15 13 17
15 15 17
2 4 7 0 42
0 0 17
0 3 17
1 1 17
1 4 17
2 2 17
2 5 17
3 0 17
3 3 17
3 6 17
4 1 17
4 4 17
4 7 17
5 2 17
5 5 17
5 8 17
6 3 17
6 6 17
6 9 17
7 4 17
7 7 17
7 10 17
8 5 17
8 8 17
8 11 17
9 6 17
9 9 17
9 12 17
10 7 17
10 10 17
10 13 17
11 8 17
11 11 17
11 14 17
12 9 17
12 12 17
12 15 17
13 10 17
13 13 17
14 11 17
14 14 17
15 12 17
15 15 17
2 4 8 0 40
0 0 17
0 4 17
1 1 17
1 5 17
2 2 17
2 6 17
3 3 17
3 7 17
4 0 17
4 4 17
4 8 17
5 1 17
5 5 17
5 9 17
6 2 17
6 6 17
6 10 17
7 3 17
7 7 17
7 11 17
8 4 17
8 8 17
8 12 17
9 5 17
9 9 17
9 13 17
10 6 17
10 10 17
10 14 17
11 7 17
11 11 17
11 15 17
12 8 17
12 12 17
13 9 17
13 13 17
14 10 17
14 14 17
15 11 17
15 15 17
2 4 9 0 38
0 0 17
0 5 17
1 1 17
1 6 17
2 2 17
2 7 17
3 3 17
3 8 17
4 4 17
4 9 17
5 0 17
5 5 17
5 10 17
6 1 17
6 6 17
6 11 17
7 2 17
7 7 17
7 12 17
8 3 17
8 8 17
8 13 17
9 4 17
9 9 17
9 14 17
10 5 17
10 10 17
10 15 17
11 6 17
11 11 17
12 7 17
12 12 17
13 8 17
13 13 17
14 9 17
14 14 17
15 10 17
15 15 17
2 4 10 0 36
0 0 17
0 6 17
1 1 17
1 7 17
2 2 17
2 8 17
3 3 17
3 9 17
4 4 17
4 10 17
5 5 17
5 11 17
6 0 17
6 6 17
6 12 17
7 1 17
7 7 17
7 13 17
8 2 17
8 8 17
8 14 17
9 3 17
9 9 17
9 15 17
10 4 17
10 10 17
11 5 17
11 11 17
12 6 17
12 12 17
13 7 17
13 13 17
14 8 17
14 14 17
15 9 17
15 15 17
2 4 11 0 34
0 0 17
0 7 17
1 1 17
1 8 17
2 2 17
2 9 17
3 3 17
3 10 17
4 4 17
4 11 17
5 5 17
5 12 17
6 6 17
6 13 17
7 0 17
7 7 17
7 14 17
8 1 17
8 8 17
8 15 17
9 2 17
9 9 17
10 3 17
10 10 17
11 4 17
11 11 17
12 5 17
12 12 17
13 6 17
13 13 17
14 7 17
14 14 17
15 8 17
15 15 17
2 4 12 0 32
0 0 17
0 8 17
1 1 17
1 9 17
2 2 17
2 10 17
3 3 17
3 11 17
4 4 17
4 12 17
5 5 17
5 13 17
6 6 17
6 14 17
7 7 17
7 15 17
8 0 17
8 8 17
9 1 17
9 9 17
10 2 17
10 10 17
11 3 17
11 11 17
12 4 17
12 12 17
13 5 17
13 13 17
14 6 17
14 14 17
15 7 17
15 15 17
2 4 13 0 30
0 0 17
0 9 17
1 1 17
1 10 17
2 2 17
2 11 17
3 3 17
3 12 17
4 4 17
4 13 17
5 5 17
5 14 17
6 6 17
6 15 17
7 7 17
8 8 17
9 0 17
9 9 17
10 1 17
10 10 17
11 2 17
11 11 17
12 3 17
12 12 17
13 4 17
13 13 17
14 5 17
14 14 17
15 6 17
15 15 17
2 4 14 0 28
0 0 17
0 10 17
1 1 17
1 11 17
2 2 17
2 12 17
3 3 17
3 13 17
4 4 17
4 14 17
5 5 17
5 15 17
6 6 17
7 7 17
8 8 17
9 9 17
10 0 17
10 10 17
11 1 17
11 11 17
12 2 17
12 12 17
13 3 17
13 13 17
14 4 17
14 14 17
15 5 17
15 15 17
2 4 15 0 26
0 0 17
0 11 17
1 1 17
1 12 17
2 2 17
2 13 17
3 3 17
3 14 17
4 4 17
4 15 17
5 5 17
6 6 17
7 7 17
8 8 17
9 9 17
10 10 17
11 0 17
11 11 17
12 1 17
12 12 17
13 2 17
13 13 17
14 3 17
14 14 17
15 4 17
15 15 17
2 5 6 0 46
0 0 17
0 1 17
1 0 17
1 1 17
1 2 17
2 1 17
2 2 17
2 3 17
3 2 17
3 3 17
3 4 17
4 3 17
4 4 17
4 5 17
5 4 17
5 5 17
5 6 17
6 5 17
6 6 17
6 7 17
7 6 17
7 7 17
7 8 17
8 7 17
8 8 17
8 9 17
9 8 17
9 9 17
9 10 17
10 9 17
10 10 17
10 11 17
11 10 17
11 11 17
11 12 17
12 11 17
12 12 17
12 13 17
13 12 17
13 13 17
13 14 17
14 13 17
14 14 17
14 15 17
15 14 17
15 15 17
2 5 7 0 44
0 0 17
0 2 17
1 1 17
1 3 17
2 0 17
2 2 17
2 4 17
3 1 17
3 3 17
3 5 17
4 2 17
4 4 17
4 6 17
5 3 17
5 5 17
5 7 17
6 4 17
6 6 17
6 8 17
7 5 17
7 7 17
7 9 17
8 6 17
8 8 17
8 10 17
9 7 17
9 9 17
9 11 17
10 8 17
10 10 17
10 12 17
11 9 17
11 11 17
11 13 17
12 10 17
12 12 17
12 14 17
13 11 17
13 13 17
13 15 17
14 12 17
14 14 17
15 13 17
15 15 17
2 5 8 0 42
0 0 17
0 3 17
1 1 17
1 4 17
2 2 17
2 5 17
3 0 17
3 3 17
3 6 17
4 1 17
4 4 17
4 7 17
5 2 17
5 5 17
5 8 17
6 3 17
6 6 17
6 9 17
7 4 17
7 7 17
7 10 17
8 5 17
8 8 17
8 11 17
9 6 17
9 9 17
9 12 17
10 7 17
10 10 17
10 13 17
11 8 17
11 11 17
11 14 17
12 9 17
12 12 17
12 15 17
13 10 17
13 13 17
14 11 17
14 14 17
15 12 17
15 15 17
2 5 9 0 40
0 0 17
0 4 17
1 1 17
1 5 17
2 2 17
2 6 17
3 3 17
3 7 17
4 0 17
4 4 17
4 8 17
5 1 17
5 5 17
5 9 17
6 2 17
6 6 17
6 10 17
7 3 17
7 7 17
7 11 17
8 4 17
8 8 17
8 12 17
9 5 17
9 9 17
9 13 17
10 6 17
10 10 17
10 14 17
11 7 17
11 11 17
11 15 17
12 8 17
12 12 17
13 9 17
13 13 17
14 10 17
14 14 17
15 11 17
15 15 17
2 5 10 0 38
0 0 17
0 5 17
1 1 17
1 6 17
2 2 17
2 7 17
3 3 17
3 8 17
4 4 17
4 9 17
5 0 17
5 5 17
5 10 17
6 1 17
6 6 17
6 11 17
7 2 17
7 7 17
7 12 17
8 3 17
8 8 17
8 13 17
9 4 17
9 9 17
9 14 17
10 5 17
10 10 17
10 15 17
11 6 17
11 11 17
12 7 17
12 12 17
13 8 17
13 13 17
14 9 17
14 14 17
15 10 17
15 15 17
2 5 11 0 36
0 0 17
0 6 17
1 1 17
1 7 17
2 2 17
2 8 17
3 3 17
3 9 17
4 4 17
4 10 17
5 5 17
5 11 17
6 0 17
6 6 17
6 12 17
7 1 17
7 7 17
7 13 17
8 2 17
8 8 17
8 14 17
9 3 17
9 9 17
9 15 17
10 4 17
10 10 17
11 5 17
11 11 17
12 6 17
12 12 17
13 7 17
13 13 17
14 8 17
14 14 17
15 9 17
15 15 17
2 5 12 0 34
0 0 17
0 7 17
1 1 17
1 8 17
2 2 17
2 9 17
3 3 17
3 10 17
4 4 17
4 11 17
5 5 17
5 12 17
6 6 17
6 13 17
7 0 17
7 7 17
7 14 17
8 1 17
8 8 17
8 15 17
9 2 17
9 9 17
10 3 17
10 10 17
11 4 17
11 11 17
12 5 17
12 12 17
13 6 17
13 13 17
14 7 17
14 14 17
15 8 17
15 15 17
2 5 13 0 32
0 0 17
0 8 17
1 1 17
1 9 17
2 2 17
2 10 17
3 3 17
3 11 17
4 4 17
4 12 17
5 5 17
5 13 17
6 6 17
6 14 17
7 7 17
7 15 17
8 0 17
8 8 17
9 1 17
9 9 17
10 2 17
10 10 17
11 3 17
11 11 17
12 4 17
12 12 17
13 5 17
13 13 17
14 6 17
14 14 17
15 7 17
15 15 17
2 5 14 0 30
0 0 17
0 9 17
1 1 17
1 10 17
2 2 17
2 11 17
3 3 17
3 12 17
4 4 17
4 13 17
5 5 17
5 14 17
6 6 17
6 15 17
7 7 17
8 8 17
9 0 17
9 9 17
10 1 17
10 10 17
11 2 17
11 11 17
12 3 17
12 12 17
13 4 17
13 13 17
14 5 17
14 14 17
15 6 17
15 15 17
2 5 15 0 28
0 0 17
0 10 17
1 1 17
1 11 17
2 2 17
2 12 17
3 3 17
3 13 17
4 4 17
4 14 17
5 5 17
5 15 17
6 6 17
7 7 17
8 8 17
9 9 17
10 0 17
10 10 17
11 1 17
11 11 17
12 2 17
12 12 17
13 3 17
13 13 17
14 4 17
14 14 17
15 5 17
15 15 17
2 6 7 0 46
0 0 17
0 1 17
1 0 17
1 1 17
1 2 17
2 1 17
2 2 17
2 3 17
3 2 17
3 3 17
3 4 17
4 3 17
4 4 17
4 5 17
5 4 17
5 5 17
5 6 17
6 5 17
6 6 17
6 7 17
7 6 17
7 7 17
7 8 17
8 7 17
8 8 17
8 9 17
9 8 17
9 9 17
9 10 17
10 9 17
10 10 17
10 11 17
11 10 17
11 11 17
11 12 17
12 11 17
12 12 17
12 13 17
13 12 17
13 13 17
13 14 17
14 13 17
14 14 17
14 15 17
15 14 17
15 15 17
2 6 8 0 44
0 0 17
0 2 17
1 1 17
1 3 17
2 0 17
2 2 17
2 4 17
3 1 17
3 3 17
3 5 17
4 2 17
4 4 17
4 6 17
5 3 17
5 5 17
5 7 17
6 4 17
6 6 17
6 8 17
7 5 17
7 7 17
7 9 17
8 6 17
8 8 17
8 10 17
9 7 17
9 9 17
9 11 17
10 8 17
10 10 17
10 12 17
11 9 17
11 11 17
11 13 17
12 10 17
12 12 17
12 14 17
13 11 17
13 13 17
13 15 17
14 12 17
14 14 17
15 13 17
15 15 17
2 6 9 0 42
0 0 17
0 3 17
1 1 17
1 4 17
2 2 17
2 5 17
3 0 17
3 3 17
3 6 17
4 1 17
4 4 17
4 7 17
5 2 17
5 5 17
5 8 17
6 3 17
6 6 17
6 9 17
7 4 17
7 7 17
7 10 17
8 5 17
8 8 17
8 11 17
9 6 17
9 9 17
9 12 17
10 7 17
10 10 17
10 13 17
11 8 17
11 11 17
11 14 17
12 9 17
12 12 17
12 15 17
13 10 17
13 13 17
14 11 17
14 14 17
15 12 17
15 15 17
2 6 10 0 40
0 0 17
0 4 17
1 1 17
1 5 17
2 2 17
2 6 17
3 3 17
3 7 17
4 0 17
4 4 17
4 8 17
5 1 17
5 5 17
5 9 17
6 2 17
6 6 17
6 10 17
7 3 17
7 7 17
7 11 17
8 4 17
8 8 17
8 12 17
9 5 17
9 9 17
9 13 17
10 6 17
10 10 17
10 14 17
11 7 17
11 11 17
11 15 17
12 8 17
12 12 17
13 9 17
13 13 17
14 10 17
14 14 17
15 11 17
15 15 17
2 6 11 0 38
0 0 17
0 5 17
1 1 17
1 6 17
2 2 17
2 7 17
3 3 17
3 8 17
4 4 17
4 9 17
5 0 17
5 5 17
5 10 17
6 1 17
6 6 17
6 11 17
7 2 17
7 7 17
7 12 17
8 3 17
8 8 17
8 13 17
9 4 17
9 9 17
9 14 17
10 5 17
10 10 17
10 15 17
11 6 17
11 11 17
12 7 17
12 12 17
13 8 17
13 13 17
14 9 17
14 14 17
15 10 17
15 15 17
2 6 12 0 36
0 0 17
0 6 17
1 1 17
1 7 17
2 2 17
2 8 17
3 3 17
3 9 17
4 4 17
4 10 17
5 5 17
5 11 17
6 0 17
6 6 17
6 12 17
7 1 17
7 7 17
7 13 17
8 2 17
8 8 17
8 14 17
9 3 17
9 9 17
9 15 17
10 4 17
10 10 17
11 5 17
11 11 17
12 6 17
12 12 17
13 7 17
13 13 17
14 8 17
14 14 17
15 9 17
15 15 17
2 6 13 0 34
0 0 17
0 7 17
1 1 17
1 8 17
2 2 17
2 9 17
3 3 17
3 10 17
4 4 17
4 11 17
5 5 17
5 12 17
6 6 17
6 13 17
7 0 17
7 7 17
7 14 17
8 1 17
8 8 17
8 15 17
9 2 17
9 9 17
10 3 17
10 10 17
11 4 17
11 11 17
12 5 17
12 12 17
13 6 17
13 13 17
14 7 17
14 14 17
15 8 17
15 15 17
2 6 14 0 32
0 0 17
0 8 17
1 1 17
1 9 17
2 2 17
2 10 17
3 3 17
3 11 17
4 4 17
4 12 17
5 5 17
5 13 17
6 6 17
6 14 17
7 7 17
7 15 17
8 0 17
8 8 17
9 1 17
9 9 17
10 2 17
10 10 17
11 3 17
11 11 17
12 4 17
12 12 17
13 5 17
13 13 17
14 6 17
14 14 17
15 7 17
15 15 17
2 6 15 0 30
0 0 17
0 9 17
1 1 17
1 10 17
2 2 17
2 11 17
3 3 17
3 12 17
4 4 17
4 13 17
5 5 17
5 14 17
6 6 17
6 15 17
7 7 17
8 8 17
9 0 17
9 9 17
10 1 17
10 10 17
11 2 17
11 11 17
12 3 17
12 12 17
13 4 17
13 13 17
14 5 17
14 14 17
15 6 17
15 15 17
2 7 8 0 46
0 0 17
0 1 17
1 0 17
1 1 17
1 2 17
2 1 17
2 2 17
2 3 17
3 2 17
3 3 17
3 4 17
4 3 17
4 4 17
4 5 17
5 4 17
5 5 17
5 6 17
6 5 17
6 6 17
6 7 17
7 6 17
7 7 17
7 8 17
8 7 17
8 8 17
8 9 17
9 8 17
9 9 17
9 10 17
10 9 17
10 10 17
10 11 17
11 10 17
11 11 17
11 12 17
12 11 17
12 12 17
12 13 17
13 12 17
13 13 17
13 14 17
14 13 17
14 14 17
14 15 17
15 14 17
15 15 17
2 7 9 0 44
0 0 17
0 2 17
1 1 17
1 3 17
2 0 17
2 2 17
2 4 17
3 1 17
3 3 17
3 5 17
4 2 17
4 4 17
4 6 17
5 3 17
5 5 17
5 7 17
6 4 17
6 6 17
6 8 17
7 5 17
7 7 17
7 9 17
8 6 17
8 8 17
8 10 17
9 7 17
9 9 17
9 11 17
10 8 17
10 10 17
10 12 17
11 9 17
11 11 17
11 13 17
12 10 17
12 12 17
12 14 17
13 11 17
13 13 17
13 15 17
14 12 17
14 14 17
15 13 17
15 15 17
2 7 10 0 42
0 0 17
0 3 17
1 1 17
1 4 17
2 2 17
2 5 17
3 0 17
3 3 17
3 6 17
4 1 17
4 4 17
4 7 17
5 2 17
5 5 17
5 8 17
6 3 17
6 6 17
6 9 17
7 4 17
7 7 17
7 10 17
8 5 17
8 8 17
8 11 17
9 6 17
9 9 17
9 12 17
10 7 17
10 10 17
10 13 17
11 8 17
11 11 17
11 14 17
12 9 17
12 12 17
12 15 17
13 10 17
13 13 17
14 11 17
14 14 17
15 12 17
15 15 17
2 7 11 0 40
0 0 17
0 4 17
1 1 17
1 5 17
2 2 17
2 6 17
3 3 17
3 7 17
4 0 17
4 4 17
4 8 17
5 1 17
5 5 17
5 9 17
6 2 17
6 6 17
6 10 17
7 3 17
7 7 17
7 11 17
8 4 17
8 8 17
8 12 17
9 5 17
9 9 17
9 13 17
10 6 17
10 10 17
10 14 17
11 7 17
11 11 17
11 15 17
12 8 17
12 12 17
13 9 17
13 13 17
14 10 17
14 14 17
15 11 17
15 15 17
2 7 12 0 38
0 0 17
0 5 17
1 1 17
1 6 17
2 2 17
2 7 17
3 3 17
3 8 17
4 4 17
4 9 17
5 0 17
5 5 17
5 10 17
6 1 17
6 6 17
6 11 17
7 2 17
7 7 17
7 12 17
8 3 17
8 8 17
8 13 17
9 4 17
9 9 17
9 14 17
10 5 17
10 10 17
10 15 17
11 6 17
11 11 17
12 7 17
12 12 17
13 8 17
13 13 17
14 9 17
14 14 17
15 10 17
15 15 17
2 7 13 0 36
0 0 17
0 6 17
1 1 17
1 7 17
2 2 17
2 8 17
3 3 17
3 9 17
4 4 17
4 10 17
5 5 17
5 11 17
6 0 17
6 6 17
6 12 17
7 1 17
7 7 17
7 13 17
8 2 17
8 8 17
8 14 17
9 3 17
9 9 17
9 15 17
10 4 17
10 10 17
11 5 17
11 11 17
12 6 17
12 12 17
13 7 17
13 13 17
14 8 17
14 14 17
15 9 17
15 15 17
2 7 14 0 34
0 0 17
0 7 17
1 1 17
1 8 17
2 2 17
2 9 17
3 3 17
3 10 17
4 4 17
4 11 17
5 5 17
5 12 17
6 6 17
6 13 17
7 0 17
7 7 17
7 14 17
8 1 17
8 8 17
8 15 17
9 2 17
9 9 17
10 3 17
10 10 17
11 4 17
11 11 17
12 5 17
12 12 17
13 6 17
13 13 17
14 7 17
14 14 17
15 8 17
15 15 17
2 7 15 0 32
0 0 17
0 8 17
1 1 17
1 9 17
2 2 17
2 10 17
3 3 17
3 11 17
4 4 17
4 12 17
5 5 17
5 13 17
6 6 17
6 14 17
7 7 17
7 15 17
8 0 17
8 8 17
9 1 17
9 9 17
10 2 17
10 10 17
11 3 17
11 11 17
12 4 17
12 12 17
13 5 17
13 13 17
14 6 17
14 14 17
15 7 17
15 15 17
2 8 9 0 46
0 0 17
0 1 17
1 0 17
1 1 17
1 2 17
2 1 17
2 2 17
2 3 17
3 2 17
3 3 17
3 4 17
4 3 17
4 4 17
4 5 17
5 4 17
5 5 17
5 6 17
6 5 17
6 6 17
6 7 17
7 6 17
7 7 17
7 8 17
8 7 17
8 8 17
8 9 17
9 8 17
9 9 17
9 10 17
10 9 17
10 10 17
10 11 17
11 10 17
11 11 17
11 12 17
12 11 17
12 12 17
12 13 17
13 12 17
13 13 17
13 14 17
14 13 17
14 14 17
14 15 17
15 14 17
15 15 17
2 8 10 0 44
0 0 17
0 2 17
1 1 17
1 3 17
2 0 17
2 2 17
2 4 17
3 1 17
3 3 17
3 5 17
4 2 17
4 4 17
4 6 17
5 3 17
5 5 17
5 7 17
6 4 17
6 6 17
6 8 17
7 5 17
7 7 17
7 9 17
8 6 17
8 8 17
8 10 17
9 7 17
9 9 17
9 11 17
10 8 17
10 10 17
10 12 17
11 9 17
11 11 17
11 13 17
12 10 17
12 12 17
12 14 17
13 11 17
13 13 17
13 15 17
14 12 17
14 14 17
15 13 17
15 15 17
2 8 11 0 42
0 0 17
0 3 17
1 1 17
1 4 17
2 2 17
2 5 17
3 0 17
3 3 17
3 6 17
4 1 17
4 4 17
4 7 17
5 2 17
5 5 17
5 8 17
6 3 17
6 6 17
6 9 17
7 4 17
7 7 17
7 10 17
8 5 17
8 8 17
8 11 17
9 6 17
9 9 17
9 12 17
10 7 17
10 10 17
10 13 17
11 8 17
11 11 17
11 14 17
12 9 17
12 12 17
12 15 17
13 10 17
13 13 17
14 11 17
14 14 17
15 12 17
15 15 17
2 8 12 0 40
0 0 17
0 4 17
1 1 17
1 5 17
2 2 17
2 6 17
3 3 17
3 7 17
4 0 17
4 4 17
4 8 17
5 1 17
5 5 17
5 9 17
6 2 17
6 6 17
6 10 17
7 3 17
7 7 17
7 11 17
8 4 17
8 8 17
8 12 17
9 5 17
9 9 17
9 13 17
10 6 17
10 10 17
10 14 17
11 7 17
11 11 17
11 15 17
12 8 17
12 12 17
13 9 17
13 13 17
14 10 17
14 14 17
15 11 17
15 15 17
2 8 13 0 38
0 0 17
0 5 17
1 1 17
1 6 17
2 2 17
2 7 17
3 3 17
3 8 17
4 4 17
4 9 17
5 0 17
5 5 17
5 10 17
6 1 17
6 6 17
6 11 17
7 2 17
7 7 17
7 12 17
8 3 17
8 8 17
8 13 17
9 4 17
9 9 17
9 14 17
10 5 17
10 10 17
10 15 17
11 6 17
11 11 17
12 7 17
12 12 17
13 8 17
13 13 17
14 9 17
14 14 17
15 10 17
15 15 17
2 8 14 0 36
0 0 17
0 6 17
1 1 17
1 7 17
2 2 17
2 8 17
3 3 17
3 9 17
4 4 17
4 10 17
5 5 17
5 11 17
6 0 17
6 6 17
6 12 17
7 1 17
7 7 17
7 13 17
8 2 17
8 8 17
8 14 17
9 3 17
9 9 17
9 15 17
10 4 17
10 10 17
11 5 17
11 11 17
12 6 17
12 12 17
13 7 17
13 13 17
14 8 17
14 14 17
15 9 17
15 15 17
2 8 15 0 34
0 0 17
0 7 17
1 1 17
1 8 17
2 2 17
2 9 17
3 3 17
3 10 17
4 4 17
4 11 17
5 5 17
5 12 17
6 6 17
6 13 17
7 0 17
7 7 17
7 14 17
8 1 17
8 8 17
8 15 17
9 2 17
9 9 17
10 3 17
10 10 17
11 4 17
11 11 17
12 5 17
12 12 17
13 6 17
13 13 17
14 7 17
14 14 17
15 8 17
15 15 17
2 9 10 0 46
0 0 17
0 1 17
1 0 17
1 1 17
1 2 17
2 1 17
2 2 17
2 3 17
3 2 17
3 3 17
3 4 17
4 3 17
4 4 17
4 5 17
5 4 17
5 5 17
5 6 17
6 5 17
6 6 17
6 7 17
7 6 17
7 7 17
7 8 17
8 7 17
8 8 17
8 9 17
9 8 17
9 9 17
9 10 17
10 9 17
10 10 17
10 11 17
11 10 17
11 11 17
11 12 17
12 11 17
12 12 17
12 13 17
13 12 17
13 13 17
13 14 17
14 13 17
14 14 17
14 15 17
15 14 17
15 15 17
2 9 11 0 44
0 0 17
0 2 17
1 1 17
1 3 17
2 0 17
2 2 17
2 4 17
3 1 17
3 3 17
3 5 17
4 2 17
4 4 17
4 6 17
5 3 17
5 5 17
5 7 17
6 4 17
6 6 17
6 8 17
7 5 17
7 7 17
7 9 17
8 6 17
8 8 17
8 10 17
9 7 17
9 9 17
9 11 17
10 8 17
10 10 17
10 12 17
11 9 17
11 11 17
11 13 17
12 10 17
12 12 17
12 14 17
13 11 17
13 13 17
13 15 17
14 12 17
14 14 17
15 13 17
15 15 17
2 9 12 0 42
0 0 17
0 3 17
1 1 17
1 4 17
2 2 17
2 5 17
3 0 17
3 3 17
3 6 17
4 1 17
4 4 17
4 7 17
5 2 17
5 5 17
5 8 17
6 3 17
6 6 17
6 9 17
7 4 17
7 7 17
7 10 17
8 5 17
8 8 17
8 11 17
9 6 17
9 9 17
9 12 17
10 7 17
10 10 17
10 13 17
11 8 17
11 11 17
11 14 17
12 9 17
12 12 17
12 15 17
13 10 17
13 13 17
14 11 17
14 14 17
15 12 17
15 15 17
2 9 13 0 40
0 0 17
0 4 17
1 1 17
1 5 17
2 2 17
2 6 17
3 3 17
3 7 17
4 0 17
4 4 17
4 8 17
5 1 17
5 5 17
5 9 17
6 2 17
6 6 17
6 10 17
7 3 17
7 7 17
7 11 17
8 4 17
8 8 17
8 12 17
9 5 17
9 9 17
9 13 17
10 6 17
10 10 17
10 14 17
11 7 17
11 11 17
11 15 17
12 8 17
12 12 17
13 9 17
13 13 17
14 10 17
14 14 17
15 11 17
15 15 17
2 9 14 0 38
0 0 17
0 5 17
1 1 17
1 6 17
2 2 17
2 7 17
3 3 17
3 8 17
4 4 17
4 9 17
5 0 17
5 5 17
5 10 17
6 1 17
6 6 17
6 11 17
7 2 17
7 7 17
7 12 17
8 3 17
8 8 17
8 13 17
9 4 17
9 9 17
9 14 17
10 5 17
10 10 17
10 15 17
11 6 17
11 11 17
12 7 17
12 12 17
13 8 17
13 13 17
14 9 17
14 14 17
15 10 17
15 15 17
2 9 15 0 36
0 0 17
0 6 17
1 1 17
1 7 17
2 2 17
2 8 17
3 3 17
3 9 17
4 4 17
4 10 17
5 5 17
5 11 17
6 0 17
6 6 17
6 12 17
7 1 17
7 7 17
7 13 17
8 2 17
8 8 17
8 14 17
9 3 17
9 9 17
9 15 17
10 4 17
10 10 17
11 5 17
11 11 17
12 6 17
12 12 17
13 7 17
13 13 17
14 8 17
14 14 17
15 9 17
15 15 17
2 10 11 0 46
0 0 17
0 1 17
1 0 17
1 1 17
1 2 17
2 1 17
2 2 17
2 3 17
3 2 17
3 3 17
3 4 17
4 3 17
4 4 17
4 5 17
5 4 17
5 5 17
5 6 17
6 5 17
6 6 17
6 7 17
7 6 17
7 7 17
7 8 17
8 7 17
8 8 17
8 9 17
9 8 17
9 9 17
9 10 17
10 9 17
10 10 17
10 11 17
11 10 17
11 11 17
11 12 17
12 11 17
12 12 17
12 13 17
13 12 17
13 13 17
13 14 17
14 13 17
14 14 17
14 15 17
15 14 17
15 15 17
2 10 12 0 44
0 0 17
0 2 17
1 1 17
1 3 17
2 0 17
2 2 17
2 4 17
3 1 17
3 3 17
3 5 17
4 2 17
4 4 17
4 6 17
5 3 17
5 5 17
5 7 17
6 4 17
6 6 17
6 8 17
7 5 17
7 7 17
7 9 17
8 6 17
8 8 17
8 10 17
9 7 17
9 9 17
9 11 17
10 8 17
10 10 17
10 12 17
11 9 17
11 11 17
11 13 17
12 10 17
12 12 17
12 14 17
13 11 17
13 13 17
13 15 17
14 12 17
14 14 17
15 13 17
15 15 17
2 10 13 0 42
0 0 17
0 3 17
1 1 17
1 4 17
2 2 17
2 5 17
3 0 17
3 3 17
3 6 17
4 1 17
4 4 17
4 7 17
5 2 17
5 5 17
5 8 17
6 3 17
6 6 17
6 9 17
7 4 17
7 7 17
7 10 17
8 5 17
8 8 17
8 11 17
9 6 17
9 9 17
9 12 17
10 7 17
10 10 17
10 13 17
11 8 17
11 11 17
11 14 17
12 9 17
12 12 17
12 15 17
13 10 17
13 13 17
14 11 17
14 14 17
15 12 17
15 15 17
2 10 14 0 40
0 0 17
0 4 17
1 1 17
1 5 17
2 2 17
2 6 17
3 3 17
3 7 17
4 0 17
4 4 17
4 8 17
5 1 17
5 5 17
5 9 17
6 2 17
6 6 17
6 10 17
7 3 17
7 7 17
7 11 17
8 4 17
8 8 17
8 12 17
9 5 17
9 9 17
9 13 17
10 6 17
10 10 17
10 14 17
11 7 17
11 11 17
11 15 17
12 8 17
12 12 17
13 9 17
13 13 17
14 10 17
14 14 17
15 11 17
15 15 17
2 10 15 0 38
0 0 17
0 5 17
1 1 17
1 6 17
2 2 17
2 7 17
3 3 17
3 8 17
4 4 17
4 9 17
5 0 17
5 5 17
5 10 17
6 1 17
6 6 17
6 11 17
7 2 17
7 7 17
7 12 17
8 3 17
8 8 17
8 13 17
9 4 17
9 9 17
9 14 17
10 5 17
10 10 17
10 15 17
11 6 17
11 11 17
12 7 17
12 12 17
13 8 17
13 13 17
14 9 17
14 14 17
15 10 17
15 15 17
2 11 12 0 46
0 0 17
0 1 17
1 0 17
1 1 17
1 2 17
2 1 17
2 2 17
2 3 17
3 2 17
3 3 17
3 4 17
4 3 17
4 4 17
4 5 17
5 4 17
5 5 17
5 6 17
6 5 17
6 6 17
6 7 17
7 6 17
7 7 17
7 8 17
8 7 17
8 8 17
8 9 17
9 8 17
9 9 17
9 10 17
10 9 17
10 10 17
10 11 17
11 10 17
11 11 17
11 12 17
12 11 17
12 12 17
12 13 17
13 12 17
13 13 17
13 14 17
14 13 17
14 14 17
14 15 17
15 14 17
15 15 17
2 11 13 0 44
0 0 17
0 2 17
1 1 17
1 3 17
2 0 17
2 2 17
2 4 17
3 1 17
3 3 17
3 5 17
4 2 17
4 4 17
4 6 17
5 3 17
5 5 17
5 7 17
6 4 17
6 6 17
6 8 17
7 5 17
7 7 17
7 9 17
8 6 17
8 8 17
8 10 17
9 7 17
9 9 17
9 11 17
10 8 17
10 10 17
10 12 17
11 9 17
11 11 17
11 13 17
12 10 17
12 12 17
12 14 17
13 11 17
13 13 17
13 15 17
14 12 17
14 14 17
15 13 17
15 15 17
2 11 14 0 42
0 0 17
0 3 17
1 1 17
1 4 17
2 2 17
2 5 17
3 0 17
3 3 17
3 6 17
4 1 17
4 4 17
4 7 17
5 2 17
5 5 17
5 8 17
6 3 17
6 6 17
6 9 17
7 4 17
7 7 17
7 10 17
8 5 17
8 8 17
8 11 17
9 6 17
9 9 17
9 12 17
10 7 17
10 10 17
10 13 17
11 8 17
11 11 17
11 14 17
12 9 17
12 12 17
12 15 17
13 10 17
13 13 17
14 11 17
14 14 17
15 12 17
15 15 17
2 11 15 0 40
0 0 17
0 4 17
1 1 17
1 5 17
2 2 17
2 6 17
3 3 17
3 7 17
4 0 17
4 4 17
4 8 17
5 1 17
5 5 17
5 9 17
6 2 17
6 6 17
6 10 17
7 3 17
7 7 17
7 11 17
8 4 17
8 8 17
8 12 17
9 5 17
9 9 17
9 13 17
10 6 17
10 10 17
10 14 17
11 7 17
11 11 17
11 15 17
12 8 17
12 12 17
13 9 17
13 13 17
14 10 17
14 14 17
15 11 17
15 15 17
2 12 13 0 46
0 0 17
0 1 17
1 0 17
1 1 17
1 2 17
2 1 17
2 2 17
2 3 17
3 2 17
3 3 17
3 4 17
4 3 17
4 4 17
4 5 17
5 4 17
5 5 17
5 6 17
6 5 17
6 6 17
6 7 17
7 6 17
7 7 17
7 8 17
8 7 17
8 8 17
8 9 17
9 8 17
9 9 17
9 10 17
10 9 17
10 10 17
10 11 17
11 10 17
11 11 17
11 12 17
12 11 17
12 12 17
12 13 17
13 12 17
13 13 17
13 14 17
14 13 17
14 14 17
14 15 17
15 14 17
15 15 17
2 12 14 0 44
0 0 17
0 2 17
1 1 17
1 3 17
2 0 17
2 2 17
2 4 17
3 1 17
3 3 17
3 5 17
4 2 17
4 4 17
4 6 17
5 3 17
5 5 17
5 7 17
6 4 17
6 6 17
6 8 17
7 5 17
7 7 17
7 9 17
8 6 17
8 8 17
8 10 17
9 7 17
9 9 17
9 11 17
10 8 17
10 10 17
10 12 17
11 9 17
11 11 17
11 13 17
12 10 17
12 12 17
12 14 17
13 11 17
13 13 17
13 15 17
14 12 17
14 14 17
15 13 17
15 15 17
2 12 15 0 42
0 0 17
0 3 17
1 1 17
1 4 17
2 2 17
2 5 17
3 0 17
3 3 17
3 6 17
4 1 17
4 4 17
4 7 17
5 2 17
5 5 17
5 8 17
6 3 17
6 6 17
6 9 17
7 4 17
7 7 17
7 10 17
8 5 17
8 8 17
8 11 17
9 6 17
9 9 17
9 12 17
10 7 17
10 10 17
10 13 17
11 8 17
11 11 17
11 14 17
12 9 17
12 12 17
12 15 17
13 10 17
13 13 17
14 11 17
14 14 17
15 12 17
15 15 17
2 13 14 0 46
0 0 17
0 1 17
1 0 17
1 1 17
1 2 17
2 1 17
2 2 17
2 3 17
3 2 17
3 3 17
3 4 17
4 3 17
4 4 17
4 5 17
5 4 17
5 5 17
5 6 17
6 5 17
6 6 17
6 7 17
7 6 17
7 7 17
7 8 17
8 7 17
8 8 17
8 9 17
9 8 17
9 9 17
9 10 17
10 9 17
10 10 17
10 11 17
11 10 17
11 11 17
11 12 17
12 11 17
12 12 17
12 13 17
13 12 17
13 13 17
13 14 17
14 13 17
14 14 17
14 15 17
15 14 17
15 15 17
2 13 15 0 44
0 0 17
0 2 17
1 1 17
1 3 17
2 0 17
2 2 17
2 4 17
3 1 17
3 3 17
3 5 17
4 2 17
4 4 17
4 6 17
5 3 17
5 5 17
5 7 17
6 4 17
6 6 17
6 8 17
7 5 17
7 7 17
7 9 17
8 6 17
8 8 17
8 10 17
9 7 17
9 9 17
9 11 17
10 8 17
10 10 17
10 12 17
11 9 17
11 11 17
11 13 17
12 10 17
12 12 17
12 14 17
13 11 17
13 13 17
13 15 17
14 12 17
14 14 17
15 13 17
15 15 17
2 14 15 0 46
0 0 17
0 1 17
1 0 17
1 1 17
1 2 17
2 1 17
2 2 17
2 3 17
3 2 17
3 3 17
3 4 17
4 3 17
4 4 17
4 5 17
5 4 17
5 5 17
5 6 17
6 5 17
6 6 17
6 7 17
7 6 17
7 7 17
7 8 17
8 7 17
8 8 17
8 9 17
9 8 17
9 9 17
9 10 17
10 9 17
10 10 17
10 11 17
11 10 17
11 11 17
11 12 17
12 11 17
12 12 17
12 13 17
13 12 17
13 13 17
13 14 17
14 13 17
14 14 17
14 15 17
15 14 17
15 15 17
1 0 0 12
1 1
2 1
4 1
5 1
6 1
7 1
8 1
9 1
10 1
11 1
12 1
13 1
1 1 0 12
0 1
1 1
2 1
3 1
4 1
5 1
6 1
9 1
11 1
13 1
14 1
15 1
1 2 0 12
0 1
3 1
4 1
5 1
6 1
9 1
10 1
11 1
12 1
13 1
14 1
15 1
1 3 0 12
0 1
1 1
2 1
3 1
5 1
7 1
8 1
11 1
12 1
13 1
14 1
15 1
1 4 0 12
0 1
1 1
3 1
4 1
5 1
8 1
9 1
10 1
11 1
12 1
13 1
14 1
1 5 0 12
0 1
1 1
2 1
3 1
4 1
5 1
6 1
7 1
9 1
11 1
13 1
14 1
1 6 0 12
0 1
1 1
3 1
4 1
6 1
7 1
8 1
10 1
11 1
12 1
14 1
15 1
1 7 0 12
0 1
1 1
3 1
4 1
5 1
7 1
8 1
9 1
10 1
11 1
12 1
13 1
1 8 0 12
1 1
2 1
3 1
5 1
6 1
7 1
8 1
9 1
10 1
11 1
14 1
15 1
1 9 0 12
1 1
2 1
3 1
5 1
7 1
9 1
10 1
11 1
12 1
13 1
14 1
15 1
1 10 0 12
1 1
2 1
3 1
4 1
5 1
6 1
8 1
9 1
10 1
12 1
13 1
14 1
1 11 0 12
0 1
2 1
3 1
4 1
6 1
7 1
9 1
10 1
12 1
13 1
14 1
15 1
1 12 0 12
0 1
1 1
3 1
4 1
5 1
6 1
8 1
9 1
10 1
11 1
14 1
15 1
1 13 0 12
0 1
1 1
2 1
4 1
5 1
6 1
7 1
8 1
9 1
12 1
14 1
15 1
1 14 0 12
0 1
1 1
3 1
4 1
5 1
6 1
7 1
8 1
9 1
10 1
12 1
15 1
1 15 0 12
1 1
3 1
4 1
5 1
6 1
7 1
8 1
11 1
12 1
13 1
14 1
15 1
